NAME          
ROWS
 N  OBJ
 L  c2
 L  c3
 L  c4
 L  c5
 L  c6
 G  c1
COLUMNS
    ss[1]     c1        1
    ss[1]     OBJ       1000
    s[1]      c2        1
    s[1]      OBJ       -1000
    s[2]      c3        1
    s[2]      OBJ       -1000
    s[3]      c4        1
    s[3]      OBJ       -1000
    s[4]      c5        1
    s[4]      OBJ       -1000
    s[5]      c6        1
    s[5]      OBJ       -1000
    MARKER    'MARKER'                 'INTORG'
    x[1]      c2        42
    x[1]      c3        509
    x[1]      c4        806
    x[1]      c5        404
    x[1]      c6        475
    x[1]      c1        556
    x[1]      OBJ       -835
    x[2]      c2        41
    x[2]      c3        883
    x[2]      c4        361
    x[2]      c5        197
    x[2]      c6        36
    x[2]      c1        125
    x[2]      OBJ       -1102
    x[3]      c2        523
    x[3]      c3        229
    x[3]      c4        199
    x[3]      c5        817
    x[3]      c6        287
    x[3]      c1        736
    x[3]      OBJ       -631
    x[4]      c2        215
    x[4]      c3        569
    x[4]      c4        781
    x[4]      c5        1000
    x[4]      c6        577
    x[4]      c1        557
    x[4]      OBJ       -868
    x[5]      c2        819
    x[5]      c3        706
    x[5]      c4        596
    x[5]      c5        44
    x[5]      c6        45
    x[5]      c1        301
    x[5]      OBJ       -1206
    x[6]      c2        551
    x[6]      c3        639
    x[6]      c4        669
    x[6]      c5        307
    x[6]      c6        700
    x[6]      c1        6
    x[6]      OBJ       -1618
    x[7]      c2        69
    x[7]      c3        114
    x[7]      c4        957
    x[7]      c5        39
    x[7]      c6        803
    x[7]      c1        111
    x[7]      OBJ       -1314
    x[8]      c2        193
    x[8]      c3        727
    x[8]      c4        358
    x[8]      c5        659
    x[8]      c6        654
    x[8]      c1        16
    x[8]      OBJ       -1427
    x[9]      c2        582
    x[9]      c3        491
    x[9]      c4        259
    x[9]      c5        46
    x[9]      c6        196
    x[9]      c1        704
    x[9]      OBJ       -768
    x[10]     c2        375
    x[10]     c3        481
    x[10]     c4        888
    x[10]     c5        334
    x[10]     c6        844
    x[10]     c1        952
    x[10]     OBJ       -381
    x[11]     c2        367
    x[11]     c3        681
    x[11]     c4        319
    x[11]     c5        448
    x[11]     c6        657
    x[11]     c1        408
    x[11]     OBJ       -1210
    x[12]     c2        478
    x[12]     c3        948
    x[12]     c4        751
    x[12]     c5        599
    x[12]     c6        387
    x[12]     c1        492
    x[12]     OBJ       -1253
    x[13]     c2        162
    x[13]     c3        687
    x[13]     c4        275
    x[13]     c5        931
    x[13]     c6        518
    x[13]     c1        163
    x[13]     OBJ       -1487
    x[14]     c2        898
    x[14]     c3        941
    x[14]     c4        177
    x[14]     c5        776
    x[14]     c6        143
    x[14]     c1        938
    x[14]     OBJ       -452
    x[15]     c2        550
    x[15]     c3        350
    x[15]     c4        883
    x[15]     c5        263
    x[15]     c6        515
    x[15]     c1        315
    x[15]     OBJ       -1251
    x[16]     c2        553
    x[16]     c3        253
    x[16]     c4        749
    x[16]     c5        980
    x[16]     c6        335
    x[16]     c1        949
    x[16]     OBJ       -686
    x[17]     c2        298
    x[17]     c3        573
    x[17]     c4        229
    x[17]     c5        807
    x[17]     c6        942
    x[17]     c1        670
    x[17]     OBJ       -686
    x[18]     c2        577
    x[18]     c3        40
    x[18]     c4        265
    x[18]     c5        378
    x[18]     c6        701
    x[18]     c1        1000
    x[18]     OBJ       -146
    x[19]     c2        493
    x[19]     c3        124
    x[19]     c4        282
    x[19]     c5        278
    x[19]     c6        332
    x[19]     c1        457
    x[19]     OBJ       -735
    x[20]     c2        183
    x[20]     c3        384
    x[20]     c4        694
    x[20]     c5        841
    x[20]     c6        803
    x[20]     c1        816
    x[20]     OBJ       -616
    x[21]     c2        260
    x[21]     c3        660
    x[21]     c4        819
    x[21]     c5        700
    x[21]     c6        265
    x[21]     c1        357
    x[21]     OBJ       -955
    x[22]     c2        224
    x[22]     c3        951
    x[22]     c4        77
    x[22]     c5        210
    x[22]     c6        922
    x[22]     c1        495
    x[22]     OBJ       -1045
    x[23]     c2        852
    x[23]     c3        739
    x[23]     c4        190
    x[23]     c5        542
    x[23]     c6        908
    x[23]     c1        916
    x[23]     OBJ       -908
    x[24]     c2        394
    x[24]     c3        329
    x[24]     c4        551
    x[24]     c5        636
    x[24]     c6        139
    x[24]     c1        852
    x[24]     OBJ       -620
    x[25]     c2        958
    x[25]     c3        146
    x[25]     c4        140
    x[25]     c5        388
    x[25]     c6        995
    x[25]     c1        614
    x[25]     OBJ       -650
    x[26]     c2        282
    x[26]     c3        593
    x[26]     c4        442
    x[26]     c5        129
    x[26]     c6        845
    x[26]     c1        161
    x[26]     OBJ       -1065
    x[27]     c2        402
    x[27]     c3        658
    x[27]     c4        867
    x[27]     c5        203
    x[27]     c6        487
    x[27]     c1        60
    x[27]     OBJ       -1239
    x[28]     c2        604
    x[28]     c3        816
    x[28]     c4        283
    x[28]     c5        110
    x[28]     c6        100
    x[28]     c1        382
    x[28]     OBJ       -1127
    x[29]     c2        164
    x[29]     c3        638
    x[29]     c4        137
    x[29]     c5        817
    x[29]     c6        447
    x[29]     c1        373
    x[29]     OBJ       -855
    x[30]     c2        308
    x[30]     c3        717
    x[30]     c4        359
    x[30]     c5        502
    x[30]     c6        653
    x[30]     c1        570
    x[30]     OBJ       -940
    x[31]     c2        218
    x[31]     c3        779
    x[31]     c4        445
    x[31]     c5        657
    x[31]     c6        649
    x[31]     c1        182
    x[31]     OBJ       -1511
    x[32]     c2        61
    x[32]     c3        289
    x[32]     c4        58
    x[32]     c5        804
    x[32]     c6        738
    x[32]     c1        934
    x[32]     OBJ       -325
    x[33]     c2        273
    x[33]     c3        430
    x[33]     c4        440
    x[33]     c5        662
    x[33]     c6        424
    x[33]     c1        129
    x[33]     OBJ       -1078
    x[34]     c2        772
    x[34]     c3        851
    x[34]     c4        192
    x[34]     c5        989
    x[34]     c6        475
    x[34]     c1        542
    x[34]     OBJ       -1058
    x[35]     c2        191
    x[35]     c3        937
    x[35]     c4        485
    x[35]     c5        585
    x[35]     c6        425
    x[35]     c1        767
    x[35]     OBJ       -892
    x[36]     c2        117
    x[36]     c3        289
    x[36]     c4        744
    x[36]     c5        645
    x[36]     c6        926
    x[36]     c1        964
    x[36]     OBJ       -384
    x[37]     c2        276
    x[37]     c3        159
    x[37]     c4        844
    x[37]     c5        113
    x[37]     c6        795
    x[37]     c1        896
    x[37]     OBJ       -587
    x[38]     c2        877
    x[38]     c3        260
    x[38]     c4        969
    x[38]     c5        436
    x[38]     c6        47
    x[38]     c1        350
    x[38]     OBJ       -1066
    x[39]     c2        415
    x[39]     c3        930
    x[39]     c4        50
    x[39]     c5        610
    x[39]     c6        136
    x[39]     c1        178
    x[39]     OBJ       -1390
    x[40]     c2        873
    x[40]     c3        248
    x[40]     c4        833
    x[40]     c5        948
    x[40]     c6        801
    x[40]     c1        557
    x[40]     OBJ       -1026
    x[41]     c2        902
    x[41]     c3        656
    x[41]     c4        57
    x[41]     c5        919
    x[41]     c6        904
    x[41]     c1        975
    x[41]     OBJ       -534
    x[42]     c2        465
    x[42]     c3        833
    x[42]     c4        877
    x[42]     c5        115
    x[42]     c6        740
    x[42]     c1        70
    x[42]     OBJ       -1321
    x[43]     c2        320
    x[43]     c3        892
    x[43]     c4        482
    x[43]     c5        967
    x[43]     c6        768
    x[43]     c1        226
    x[43]     OBJ       -1218
    x[44]     c2        870
    x[44]     c3        60
    x[44]     c4        732
    x[44]     c5        13
    x[44]     c6        460
    x[44]     c1        356
    x[44]     OBJ       -1059
    x[45]     c2        244
    x[45]     c3        278
    x[45]     c4        968
    x[45]     c5        445
    x[45]     c6        76
    x[45]     c1        404
    x[45]     OBJ       -934
    x[46]     c2        781
    x[46]     c3        741
    x[46]     c4        113
    x[46]     c5        449
    x[46]     c6        660
    x[46]     c1        79
    x[46]     OBJ       -1370
    x[47]     c2        86
    x[47]     c3        297
    x[47]     c4        486
    x[47]     c5        740
    x[47]     c6        500
    x[47]     c1        833
    x[47]     OBJ       -695
    x[48]     c2        622
    x[48]     c3        967
    x[48]     c4        710
    x[48]     c5        592
    x[48]     c6        915
    x[48]     c1        616
    x[48]     OBJ       -1134
    x[49]     c2        665
    x[49]     c3        86
    x[49]     c4        439
    x[49]     c5        327
    x[49]     c6        897
    x[49]     c1        575
    x[49]     OBJ       -827
    x[50]     c2        155
    x[50]     c3        249
    x[50]     c4        747
    x[50]     c5        167
    x[50]     c6        25
    x[50]     c1        987
    x[50]     OBJ       -482
    x[51]     c2        680
    x[51]     c3        354
    x[51]     c4        174
    x[51]     c5        368
    x[51]     c6        716
    x[51]     c1        340
    x[51]     OBJ       -956
    x[52]     c2        101
    x[52]     c3        614
    x[52]     c4        260
    x[52]     c5        335
    x[52]     c6        557
    x[52]     c1        794
    x[52]     OBJ       -427
    x[53]     c2        665
    x[53]     c3        836
    x[53]     c4        877
    x[53]     c5        179
    x[53]     c6        72
    x[53]     c1        321
    x[53]     OBJ       -1017
    x[54]     c2        227
    x[54]     c3        290
    x[54]     c4        474
    x[54]     c5        909
    x[54]     c6        696
    x[54]     c1        337
    x[54]     OBJ       -993
    x[55]     c2        597
    x[55]     c3        893
    x[55]     c4        841
    x[55]     c5        825
    x[55]     c6        653
    x[55]     c1        580
    x[55]     OBJ       -948
    x[56]     c2        354
    x[56]     c3        857
    x[56]     c4        422
    x[56]     c5        614
    x[56]     c6        933
    x[56]     c1        920
    x[56]     OBJ       -510
    x[57]     c2        597
    x[57]     c3        158
    x[57]     c4        280
    x[57]     c5        987
    x[57]     c6        420
    x[57]     c1        425
    x[57]     OBJ       -945
    x[58]     c2        79
    x[58]     c3        869
    x[58]     c4        684
    x[58]     c5        350
    x[58]     c6        582
    x[58]     c1        170
    x[58]     OBJ       -1074
    x[59]     c2        162
    x[59]     c3        206
    x[59]     c4        330
    x[59]     c5        179
    x[59]     c6        810
    x[59]     c1        955
    x[59]     OBJ       -264
    x[60]     c2        998
    x[60]     c3        504
    x[60]     c4        910
    x[60]     c5        415
    x[60]     c6        861
    x[60]     c1        581
    x[60]     OBJ       -1137
    x[61]     c2        849
    x[61]     c3        799
    x[61]     c4        791
    x[61]     c5        821
    x[61]     c6        758
    x[61]     c1        739
    x[61]     OBJ       -789
    x[62]     c2        136
    x[62]     c3        758
    x[62]     c4        322
    x[62]     c5        525
    x[62]     c6        647
    x[62]     c1        622
    x[62]     OBJ       -705
    x[63]     c2        112
    x[63]     c3        431
    x[63]     c4        404
    x[63]     c5        774
    x[63]     c6        237
    x[63]     c1        473
    x[63]     OBJ       -923
    x[64]     c2        751
    x[64]     c3        580
    x[64]     c4        403
    x[64]     c5        283
    x[64]     c6        631
    x[64]     c1        789
    x[64]     OBJ       -774
    x[65]     c2        735
    x[65]     c3        780
    x[65]     c4        519
    x[65]     c5        427
    x[65]     c6        271
    x[65]     c1        946
    x[65]     OBJ       -747
    x[66]     c2        884
    x[66]     c3        788
    x[66]     c4        148
    x[66]     c5        275
    x[66]     c6        91
    x[66]     c1        499
    x[66]     OBJ       -996
    x[67]     c2        71
    x[67]     c3        583
    x[67]     c4        948
    x[67]     c5        659
    x[67]     c6        75
    x[67]     c1        666
    x[67]     OBJ       -875
    x[68]     c2        449
    x[68]     c3        641
    x[68]     c4        414
    x[68]     c5        392
    x[68]     c6        756
    x[68]     c1        546
    x[68]     OBJ       -852
    x[69]     c2        266
    x[69]     c3        32
    x[69]     c4        894
    x[69]     c5        73
    x[69]     c6        409
    x[69]     c1        630
    x[69]     OBJ       -792
    x[70]     c2        420
    x[70]     c3        653
    x[70]     c4        147
    x[70]     c5        896
    x[70]     c6        440
    x[70]     c1        997
    x[70]     OBJ       -387
    x[71]     c2        797
    x[71]     c3        252
    x[71]     c4        73
    x[71]     c5        68
    x[71]     c6        483
    x[71]     c1        462
    x[71]     OBJ       -1047
    x[72]     c2        945
    x[72]     c3        709
    x[72]     c4        297
    x[72]     c5        982
    x[72]     c6        336
    x[72]     c1        750
    x[72]     OBJ       -920
    x[73]     c2        746
    x[73]     c3        129
    x[73]     c4        97
    x[73]     c5        697
    x[73]     c6        765
    x[73]     c1        841
    x[73]     OBJ       -699
    x[74]     c2        46
    x[74]     c3        368
    x[74]     c4        651
    x[74]     c5        421
    x[74]     c6        637
    x[74]     c1        795
    x[74]     OBJ       -539
    x[75]     c2        44
    x[75]     c3        440
    x[75]     c4        380
    x[75]     c5        246
    x[75]     c6        981
    x[75]     c1        2
    x[75]     OBJ       -1149
    x[76]     c2        545
    x[76]     c3        314
    x[76]     c4        67
    x[76]     c5        672
    x[76]     c6        980
    x[76]     c1        522
    x[76]     OBJ       -1136
    x[77]     c2        882
    x[77]     c3        287
    x[77]     c4        582
    x[77]     c5        649
    x[77]     c6        202
    x[77]     c1        778
    x[77]     OBJ       -712
    x[78]     c2        72
    x[78]     c3        854
    x[78]     c4        973
    x[78]     c5        731
    x[78]     c6        35
    x[78]     c1        42
    x[78]     OBJ       -1577
    x[79]     c2        383
    x[79]     c3        460
    x[79]     c4        143
    x[79]     c5        191
    x[79]     c6        594
    x[79]     c1        714
    x[79]     OBJ       -655
    x[80]     c2        714
    x[80]     c3        594
    x[80]     c4        732
    x[80]     c5        514
    x[80]     c6        689
    x[80]     c1        645
    x[80]     OBJ       -1167
    x[81]     c2        987
    x[81]     c3        512
    x[81]     c4        624
    x[81]     c5        983
    x[81]     c6        602
    x[81]     c1        855
    x[81]     OBJ       -993
    x[82]     c2        183
    x[82]     c3        239
    x[82]     c4        518
    x[82]     c5        886
    x[82]     c6        76
    x[82]     c1        396
    x[82]     OBJ       -747
    x[83]     c2        731
    x[83]     c3        719
    x[83]     c4        847
    x[83]     c5        95
    x[83]     c6        767
    x[83]     c1        768
    x[83]     OBJ       -828
    x[84]     c2        301
    x[84]     c3        751
    x[84]     c4        113
    x[84]     c5        846
    x[84]     c6        693
    x[84]     c1        392
    x[84]     OBJ       -1175
    x[85]     c2        718
    x[85]     c3        708
    x[85]     c4        382
    x[85]     c5        689
    x[85]     c6        893
    x[85]     c1        141
    x[85]     OBJ       -1534
    x[86]     c2        91
    x[86]     c3        670
    x[86]     c4        97
    x[86]     c5        206
    x[86]     c6        160
    x[86]     c1        544
    x[86]     OBJ       -714
    x[87]     c2        109
    x[87]     c3        269
    x[87]     c4        905
    x[87]     c5        417
    x[87]     c6        785
    x[87]     c1        847
    x[87]     OBJ       -734
    x[88]     c2        567
    x[88]     c3        832
    x[88]     c4        398
    x[88]     c5        14
    x[88]     c6        311
    x[88]     c1        263
    x[88]     OBJ       -1109
    x[89]     c2        708
    x[89]     c3        137
    x[89]     c4        859
    x[89]     c5        735
    x[89]     c6        417
    x[89]     c1        325
    x[89]     OBJ       -1263
    x[90]     c2        507
    x[90]     c3        356
    x[90]     c4        4
    x[90]     c5        267
    x[90]     c6        748
    x[90]     c1        227
    x[90]     OBJ       -945
    x[91]     c2        983
    x[91]     c3        960
    x[91]     c4        142
    x[91]     c5        822
    x[91]     c6        375
    x[91]     c1        765
    x[91]     OBJ       -841
    x[92]     c2        808
    x[92]     c3        651
    x[92]     c4        110
    x[92]     c5        977
    x[92]     c6        362
    x[92]     c1        128
    x[92]     OBJ       -1351
    x[93]     c2        766
    x[93]     c3        398
    x[93]     c4        11
    x[93]     c5        302
    x[93]     c6        617
    x[93]     c1        10
    x[93]     OBJ       -1440
    x[94]     c2        615
    x[94]     c3        893
    x[94]     c4        213
    x[94]     c5        687
    x[94]     c6        553
    x[94]     c1        973
    x[94]     OBJ       -606
    x[95]     c2        554
    x[95]     c3        407
    x[95]     c4        398
    x[95]     c5        118
    x[95]     c6        474
    x[95]     c1        162
    x[95]     OBJ       -1116
    x[96]     c2        282
    x[96]     c3        477
    x[96]     c4        173
    x[96]     c5        990
    x[96]     c6        915
    x[96]     c1        743
    x[96]     OBJ       -848
    x[97]     c2        995
    x[97]     c3        552
    x[97]     c4        106
    x[97]     c5        323
    x[97]     c6        457
    x[97]     c1        208
    x[97]     OBJ       -1229
    x[98]     c2        946
    x[98]     c3        805
    x[98]     c4        331
    x[98]     c5        993
    x[98]     c6        261
    x[98]     c1        223
    x[98]     OBJ       -1512
    x[99]     c2        651
    x[99]     c3        881
    x[99]     c4        254
    x[99]     c5        525
    x[99]     c6        350
    x[99]     c1        981
    x[99]     OBJ       -526
    x[100]    c2        298
    x[100]    c3        850
    x[100]    c4        447
    x[100]    c5        322
    x[100]    c6        635
    x[100]    c1        143
    x[100]    OBJ       -1380
RHS
    rhs       c2        11927
    rhs       c3        13727
    rhs       c4        11551
    rhs       c5        13056
    rhs       c6        13460
    rhs       c1        1316
RANGES
BOUNDS
 LO bounds    ss[1]     0
 PL bounds    ss[1]
 MI bounds    s[1]
 UP bounds    s[1]      0
 MI bounds    s[2]
 UP bounds    s[2]      0
 MI bounds    s[3]
 UP bounds    s[3]      0
 MI bounds    s[4]
 UP bounds    s[4]      0
 MI bounds    s[5]
 UP bounds    s[5]      0
 BV bounds    x[1]
 BV bounds    x[2]
 BV bounds    x[3]
 BV bounds    x[4]
 BV bounds    x[5]
 BV bounds    x[6]
 BV bounds    x[7]
 BV bounds    x[8]
 BV bounds    x[9]
 BV bounds    x[10]
 BV bounds    x[11]
 BV bounds    x[12]
 BV bounds    x[13]
 BV bounds    x[14]
 BV bounds    x[15]
 BV bounds    x[16]
 BV bounds    x[17]
 BV bounds    x[18]
 BV bounds    x[19]
 BV bounds    x[20]
 BV bounds    x[21]
 BV bounds    x[22]
 BV bounds    x[23]
 BV bounds    x[24]
 BV bounds    x[25]
 BV bounds    x[26]
 BV bounds    x[27]
 BV bounds    x[28]
 BV bounds    x[29]
 BV bounds    x[30]
 BV bounds    x[31]
 BV bounds    x[32]
 BV bounds    x[33]
 BV bounds    x[34]
 BV bounds    x[35]
 BV bounds    x[36]
 BV bounds    x[37]
 BV bounds    x[38]
 BV bounds    x[39]
 BV bounds    x[40]
 BV bounds    x[41]
 BV bounds    x[42]
 BV bounds    x[43]
 BV bounds    x[44]
 BV bounds    x[45]
 BV bounds    x[46]
 BV bounds    x[47]
 BV bounds    x[48]
 BV bounds    x[49]
 BV bounds    x[50]
 BV bounds    x[51]
 BV bounds    x[52]
 BV bounds    x[53]
 BV bounds    x[54]
 BV bounds    x[55]
 BV bounds    x[56]
 BV bounds    x[57]
 BV bounds    x[58]
 BV bounds    x[59]
 BV bounds    x[60]
 BV bounds    x[61]
 BV bounds    x[62]
 BV bounds    x[63]
 BV bounds    x[64]
 BV bounds    x[65]
 BV bounds    x[66]
 BV bounds    x[67]
 BV bounds    x[68]
 BV bounds    x[69]
 BV bounds    x[70]
 BV bounds    x[71]
 BV bounds    x[72]
 BV bounds    x[73]
 BV bounds    x[74]
 BV bounds    x[75]
 BV bounds    x[76]
 BV bounds    x[77]
 BV bounds    x[78]
 BV bounds    x[79]
 BV bounds    x[80]
 BV bounds    x[81]
 BV bounds    x[82]
 BV bounds    x[83]
 BV bounds    x[84]
 BV bounds    x[85]
 BV bounds    x[86]
 BV bounds    x[87]
 BV bounds    x[88]
 BV bounds    x[89]
 BV bounds    x[90]
 BV bounds    x[91]
 BV bounds    x[92]
 BV bounds    x[93]
 BV bounds    x[94]
 BV bounds    x[95]
 BV bounds    x[96]
 BV bounds    x[97]
 BV bounds    x[98]
 BV bounds    x[99]
 BV bounds    x[100]
ENDATA
